************************************************************************
file with basedata            : md383_.bas
initial value random generator: 1891837232
************************************************************************
projects                      :  1
jobs (incl. supersource/sink ):  22
horizon                       :  157
RESOURCES
  - renewable                 :  2   R
  - nonrenewable              :  2   N
  - doubly constrained        :  0   D
************************************************************************
PROJECT INFORMATION:
pronr.  #jobs rel.date duedate tardcost  MPM-Time
    1     20      0       21        4       21
************************************************************************
PRECEDENCE RELATIONS:
jobnr.    #modes  #successors   successors
   1        1          3           2   3   4
   2        3          3           5   6   8
   3        3          3           7  10  12
   4        3          2           8   9
   5        3          2          17  21
   6        3          1          13
   7        3          1          18
   8        3          2          15  16
   9        3          3          10  11  14
  10        3          2          13  16
  11        3          2          13  18
  12        3          3          14  16  17
  13        3          1          15
  14        3          1          19
  15        3          3          17  20  21
  16        3          2          19  20
  17        3          1          19
  18        3          2          20  21
  19        3          1          22
  20        3          1          22
  21        3          1          22
  22        1          0        
************************************************************************
REQUESTS/DURATIONS:
jobnr. mode duration  R 1  R 2  N 1  N 2
------------------------------------------------------------------------
  1      1     0       0    0    0    0
  2      1     1       5    9    8    2
         2     2       4    8    7    2
         3     9       3    5    4    1
  3      1     3       6    5   10    5
         2     6       5    5   10    2
         3     9       4    4   10    2
  4      1     1       8    5   10    4
         2     3       7    5    9    2
         3     6       3    5    8    1
  5      1     2       6    2    9    8
         2     4       5    2    7    7
         3     7       3    1    3    7
  6      1     1       8    4    6    8
         2     8       8    4    5    5
         3    10       8    3    4    1
  7      1     3       9    5    8    6
         2     6       6    4    5    6
         3     8       1    3    2    4
  8      1     1      10    9    8    4
         2     3      10    8    8    3
         3     7       9    6    5    2
  9      1     2       5    9    8    6
         2     9       4    7    7    3
         3    10       4    6    7    2
 10      1     6       3    5    9    6
         2     6       5    5    8    6
         3     8       1    4    7    4
 11      1     1       6    9    9    7
         2     6       5    8    6    7
         3     7       3    7    6    7
 12      1     3       6   10    5    2
         2     7       4    9    2    2
         3     7       5    9    3    1
 13      1     5       5    3    2    6
         2     9       4    3    1    6
         3    10       3    2    1    3
 14      1     2       6    6    9    4
         2     2       5    7    9    4
         3     5       1    5    8    2
 15      1     2       9   10    9    9
         2     7       9    9    4    7
         3     8       9    9    2    2
 16      1     2       6    6    7    7
         2     4       5    3    5    5
         3     4       2    5    6    6
 17      1     3       6    2    7    7
         2     4       3    2    4    5
         3     8       1    2    3    1
 18      1     1       2   10    5    7
         2     1       2   10    4    8
         3    10       1   10    3    7
 19      1     2       8    7    9    5
         2     3       6    7    9    2
         3     9       3    6    7    1
 20      1     2       6    6    7    8
         2     9       6    4    5    5
         3    10       5    3    5    4
 21      1     2       9    5    6    5
         2     4       8    4    6    4
         3     5       6    4    4    4
 22      1     0       0    0    0    0
************************************************************************
RESOURCEAVAILABILITIES:
  R 1  R 2  N 1  N 2
   29   24  151  117
************************************************************************
MAXIMAL LAGS:
from  to  type  delay
    1   12   ES      0
    1    2   ES      0
    2   12   ES      0
    1    3   ES      0
    3   12   ES      0
    1    4   ES      0
    4   12   ES      0
    1    5   ES      0
    5   12   ES      0
    1    6   ES      0
    6   12   ES      0
    1    7   ES      0
    7   12   ES      0
    1    8   ES      0
    8   12   ES      0
    1    9   ES      0
    9   12   ES      0
    1   10   ES      0
   10   12   ES      0
    1   11   ES      0
   11   12   ES      0
    1   12   ES      0
    2    5   SS      1
    2    5   SE     -1
    2    5   ES     -9
    2    5   EE     -5
    2    6   SS     -6
    2    6   SE     -2
    2    6   ES     -7
    2    6   EE      6
    2    8   SS     -3
    2    8   SE      7
    2    8   ES     -1
    2    8   EE      3
    3    7   SS      1
    3    7   SE    -11
    3    7   ES     -5
    3    7   EE     10
    3   10   SS      8
    3   10   SE     12
    3   10   ES      6
    3   10   EE      1
    4    8   SS     10
    4    8   SE    -10
    4    8   ES    -12
    4    8   EE      5
    4    9   SS     -4
    4    9   SE      8
    4    9   ES      9
    4    9   EE      6
    5   17   SS     -7
    5   17   SE     12
    5   17   ES     10
    5   17   EE      6
    5   21   SS      3
    5   21   SE    -11
    5   21   ES     -3
    5   21   EE     12
    6   13   SS     -2
    6   13   SE     -6
    6   13   ES      4
    6   13   EE      1
    7   18   SS      5
    7   18   SE      2
   18    7   SE      0
    7   18   ES      0
    7   18   EE    -10
    8   15   SS     -8
    8   15   SE     10
    8   15   ES     12
    8   15   EE      6
    8   16   SS      2
    8   16   SE      1
    8   16   ES      3
    8   16   EE      0
    9   10   SS     -8
    9   10   SE     -9
    9   10   ES      8
    9   10   EE     -6
    9   11   SS     -2
    9   11   SE     -3
    9   11   ES      8
    9   11   EE     -2
    9   14   SS      0
    9   14   SE     12
    9   14   ES    -10
    9   14   EE     -4
   10   13   SS     11
   10   13   SE     -5
   10   13   ES     -9
   10   13   EE     -1
   10   16   SS     11
   10   16   SE     -6
   10   16   ES      9
   10   16   EE      4
   11   13   SS      8
   11   13   SE     -6
   11   13   ES      9
   11   13   EE     -3
   11   18   SS      5
   11   18   SE      8
   11   18   ES      6
   11   18   EE      6
   12   14   SS     10
   12   14   SE     -1
   12   14   ES     -5
   12   14   EE    -10
   12   16   SS     -7
   12   16   SE    -11
   12   16   ES    -11
   12   16   EE      4
   12   17   SS     12
   12   17   SE     -2
   12   17   ES      6
   12   17   EE    -11
   13   15   SS     -3
   13   15   SE    -11
   13   15   ES     12
   13   15   EE    -12
   14   19   SS     -7
   14   19   SE     -4
   14   19   ES     -9
   14   19   EE      9
   15   17   SS      2
   15   17   SE    -11
   15   17   ES     -6
   15   17   EE      0
   15   20   SS     10
   15   20   SE     -4
   15   20   ES     -7
   15   20   EE     -5
   15   21   SS      3
   15   21   SE     11
   15   21   ES     -5
   15   21   EE     -6
   16   19   SS    -10
   16   19   SE     -6
   16   19   ES     -3
   16   19   EE      8
   16   20   SS     -8
   16   20   SE     -3
   16   20   ES    -10
   16   20   EE     -3
   17   19   SS      8
   17   19   SE      2
   17   19   ES     -9
   17   19   EE      4
   18   20   SS      6
   18   20   SE      3
   18   20   ES      0
   18   20   EE     -7
   18   21   SS    -10
   18   21   SE     12
   18   21   ES      3
   18   21   EE      3
   19   22   SS      7
   19   22   SE      9
   19   22   ES     11
   19   22   EE     11
   20   22   SS     -3
   20   22   SE     11
   20   22   ES     -8
   20   22   EE      8
   21   22   SS      7
   21   22   SE     -7
   21   22   ES     -9
   21   22   EE    -11
************************************************************************
